2
20
62
40 70
31 43 4 0
30 41 2 0
29 39 4 0
28 38 4 0
27 37 3 0
26 36 4 0
25 35 3 0
24 34 4 0
33 23 4 0
22 32 3 0
31 21 3 0
29 18 3 0
17 27 2 0
15 24 2 0
16 25 4 0
15 24 1 0
23 14 4 0
21 12 3 0
19 11 4 0
9 17 1 0

